 Code  1331
 Dimension, Fixed Cost
   100        3000
 Facility, Client, Transportation Cost
     1        1           1
     1        6           1
     1        8           0
     1       12           1
     1       15           3
     1       23           3
     1       43           0
     1       55           1
     1       80           3
     1       92           4
     2       10           2
     2       18           0
     2       23           4
     2       33           4
     2       38           3
     2       54           4
     2       55           2
     2       60           0
     2       78           4
     2       91           1
     3       11           2
     3       26           4
     3       39           4
     3       40           2
     3       55           3
     3       57           0
     3       63           2
     3       77           3
     3       82           2
     3       89           0
     4        4           0
     4       23           4
     4       27           2
     4       31           0
     4       32           1
     4       45           1
     4       46           4
     4       53           3
     4       80           1
     4       91           4
     5        9           4
     5       13           3
     5       36           4
     5       41           4
     5       46           4
     5       48           1
     5       55           1
     5       70           0
     5       93           1
     5       96           3
     6       13           3
     6       17           2
     6       21           3
     6       22           1
     6       26           4
     6       42           2
     6       67           1
     6       81           0
     6       99           0
     6      100           4
     7       15           1
     7       16           3
     7       36           4
     7       44           2
     7       45           4
     7       63           1
     7       64           0
     7       65           2
     7       81           3
     7       95           1
     8       24           2
     8       37           3
     8       42           3
     8       44           3
     8       51           0
     8       52           1
     8       53           2
     8       74           0
     8       84           1
     8       99           3
     9        3           3
     9        8           3
     9       17           3
     9       21           1
     9       42           2
     9       51           1
     9       56           2
     9       67           0
     9       86           0
     9       96           4
    10        7           4
    10       10           2
    10       12           1
    10       17           1
    10       24           0
    10       33           4
    10       42           2
    10       60           4
    10       80           2
    10       92           4
    11       18           1
    11       35           1
    11       42           1
    11       52           0
    11       57           2
    11       62           3
    11       64           3
    11       76           3
    11       80           4
    11       91           4
    12        3           4
    12        9           3
    12       10           3
    12       19           4
    12       34           1
    12       67           2
    12       72           4
    12       75           2
    12       77           0
    12       81           4
    13       20           0
    13       28           4
    13       44           2
    13       45           0
    13       53           4
    13       59           0
    13       68           3
    13       79           4
    13       83           4
    13       88           1
    14        5           0
    14       10           2
    14       45           0
    14       47           1
    14       56           2
    14       63           2
    14       70           2
    14       73           1
    14       89           3
    14       97           2
    15        4           0
    15       15           3
    15       17           1
    15       30           2
    15       31           1
    15       32           0
    15       43           0
    15       64           4
    15       66           4
    15       72           0
    16        2           0
    16       29           4
    16       34           2
    16       37           3
    16       40           0
    16       72           4
    16       83           1
    16       86           0
    16       88           0
    16       94           4
    17        3           1
    17        4           0
    17       10           2
    17       23           3
    17       37           0
    17       43           4
    17       54           1
    17       73           2
    17       89           4
    17       93           0
    18        2           0
    18       18           4
    18       39           1
    18       53           3
    18       54           4
    18       55           2
    18       56           2
    18       65           1
    18       67           3
    18      100           0
    19        4           4
    19       14           2
    19       25           2
    19       42           0
    19       58           0
    19       60           1
    19       61           4
    19       62           4
    19       83           2
    19       87           3
    20       26           1
    20       28           2
    20       33           0
    20       37           2
    20       48           4
    20       53           2
    20       59           3
    20       64           3
    20       75           1
    20      100           0
    21        7           1
    21       19           0
    21       37           1
    21       40           4
    21       50           3
    21       57           3
    21       59           0
    21       63           1
    21       64           0
    21       69           3
    22        2           4
    22        3           2
    22       14           3
    22       21           1
    22       36           1
    22       44           4
    22       50           1
    22       71           2
    22       87           0
    22       91           4
    23        6           2
    23       31           3
    23       47           2
    23       48           3
    23       50           3
    23       70           3
    23       82           1
    23       92           2
    23       95           4
    23       98           3
    24        1           4
    24        6           3
    24       17           0
    24       18           1
    24       57           1
    24       71           0
    24       73           2
    24       77           4
    24       83           1
    24       94           3
    25        7           4
    25       10           4
    25       13           1
    25       15           2
    25       42           4
    25       58           2
    25       62           3
    25       66           0
    25       82           1
    25       86           4
    26        2           1
    26       11           2
    26       21           4
    26       30           1
    26       32           2
    26       61           3
    26       77           2
    26       78           0
    26       85           2
    26       98           1
    27       23           1
    27       39           3
    27       46           1
    27       47           1
    27       50           2
    27       70           4
    27       74           2
    27       79           3
    27       89           1
    27       94           1
    28        8           3
    28       13           1
    28       15           1
    28       31           3
    28       57           3
    28       68           3
    28       70           2
    28       73           2
    28       75           4
    28       80           0
    29        4           4
    29       12           0
    29       26           2
    29       27           1
    29       28           0
    29       34           0
    29       38           4
    29       84           1
    29       88           3
    29      100           0
    30        8           2
    30       11           1
    30       14           1
    30       22           1
    30       27           1
    30       28           3
    30       30           2
    30       37           1
    30       41           4
    30       46           2
    31        2           1
    31       12           3
    31       25           4
    31       32           1
    31       37           2
    31       50           4
    31       59           4
    31       60           1
    31       65           2
    31       94           2
    32       33           4
    32       35           3
    32       43           1
    32       68           3
    32       76           1
    32       78           1
    32       83           4
    32       87           4
    32       92           4
    32       99           3
    33        1           0
    33       21           2
    33       26           3
    33       37           2
    33       48           4
    33       61           2
    33       76           3
    33       77           0
    33       87           4
    33       91           2
    34       12           1
    34       18           4
    34       46           0
    34       57           1
    34       60           0
    34       84           4
    34       87           4
    34       91           3
    34       94           0
    34      100           2
    35        7           1
    35       13           1
    35       17           0
    35       23           4
    35       31           4
    35       38           3
    35       62           3
    35       70           0
    35       78           4
    35      100           1
    36        1           0
    36        3           4
    36        7           0
    36       10           0
    36       23           1
    36       77           0
    36       81           3
    36       87           2
    36       88           1
    36       97           3
    37        1           1
    37       32           4
    37       44           0
    37       46           3
    37       51           3
    37       56           1
    37       73           3
    37       84           2
    37       87           3
    37       93           0
    38        3           0
    38       13           4
    38       22           2
    38       36           0
    38       37           2
    38       39           1
    38       71           0
    38       92           4
    38       95           0
    38       97           0
    39        8           3
    39        9           4
    39       13           3
    39       31           1
    39       34           2
    39       35           0
    39       44           1
    39       72           0
    39       77           1
    39       95           2
    40        3           3
    40       22           3
    40       35           4
    40       42           3
    40       57           2
    40       69           0
    40       76           0
    40       77           1
    40       87           3
    40       93           3
    41        2           1
    41       38           3
    41       41           2
    41       44           2
    41       45           4
    41       53           1
    41       72           2
    41       76           2
    41       91           1
    41       97           0
    42        4           2
    42       14           2
    42       52           2
    42       57           2
    42       64           1
    42       65           2
    42       75           0
    42       84           4
    42       87           3
    42       97           2
    43        3           1
    43       15           4
    43       26           4
    43       34           2
    43       35           1
    43       37           3
    43       43           4
    43       51           1
    43       86           4
    43       93           1
    44        1           0
    44       17           2
    44       30           1
    44       43           2
    44       51           0
    44       77           3
    44       78           4
    44       91           4
    44       97           3
    44       98           3
    45       18           0
    45       35           4
    45       49           3
    45       54           0
    45       56           2
    45       65           0
    45       66           1
    45       78           3
    45       87           2
    45       99           4
    46       17           0
    46       30           0
    46       38           3
    46       44           2
    46       54           2
    46       58           2
    46       62           0
    46       93           4
    46       99           4
    46      100           3
    47        9           4
    47       12           1
    47       42           2
    47       51           4
    47       52           0
    47       71           0
    47       72           3
    47       84           3
    47       87           0
    47       90           0
    48       18           4
    48       21           1
    48       41           1
    48       53           4
    48       56           1
    48       62           1
    48       66           4
    48       84           2
    48       91           1
    48      100           1
    49        1           4
    49       25           4
    49       30           2
    49       45           4
    49       54           2
    49       60           2
    49       65           3
    49       76           1
    49       78           1
    49       92           1
    50       13           4
    50       16           0
    50       40           2
    50       45           4
    50       47           4
    50       56           2
    50       62           2
    50       64           4
    50       75           0
    50      100           1
    51        2           1
    51        9           0
    51       17           3
    51       36           4
    51       40           1
    51       47           2
    51       49           2
    51       52           2
    51       55           0
    51       73           2
    52       23           2
    52       35           4
    52       47           3
    52       57           4
    52       59           0
    52       60           3
    52       70           3
    52       71           3
    52       80           2
    52       84           3
    53        5           1
    53        7           3
    53       17           0
    53       51           1
    53       53           4
    53       62           0
    53       68           2
    53       69           3
    53       90           0
    53       96           2
    54       13           0
    54       21           4
    54       23           2
    54       25           2
    54       29           4
    54       33           0
    54       65           4
    54       84           2
    54       88           1
    54       91           3
    55        5           3
    55       14           3
    55       18           2
    55       38           2
    55       50           1
    55       58           3
    55       67           0
    55       84           1
    55       85           2
    55       87           0
    56        3           0
    56        6           3
    56       10           1
    56       15           2
    56       29           1
    56       61           4
    56       89           2
    56       90           4
    56       91           0
    56       96           4
    57        5           1
    57       17           1
    57       34           3
    57       41           1
    57       55           1
    57       59           1
    57       70           4
    57       74           1
    57       96           1
    57       98           4
    58        4           2
    58       25           1
    58       34           3
    58       38           1
    58       39           4
    58       53           1
    58       54           3
    58       66           0
    58       68           2
    58       84           1
    59        4           1
    59        5           0
    59       19           2
    59       40           1
    59       51           0
    59       60           4
    59       71           0
    59       76           0
    59       77           3
    59       85           3
    60        2           3
    60        5           3
    60        9           4
    60       38           0
    60       48           4
    60       54           2
    60       72           2
    60       79           0
    60       94           1
    60       97           1
    61        4           0
    61        5           0
    61       23           1
    61       38           3
    61       43           0
    61       47           4
    61       49           3
    61       62           1
    61       66           0
    61       95           4
    62       21           1
    62       22           4
    62       35           1
    62       48           0
    62       65           1
    62       66           1
    62       84           0
    62       87           0
    62       94           1
    62       97           3
    63        3           0
    63        5           2
    63        6           1
    63       22           3
    63       24           3
    63       37           0
    63       51           2
    63       70           1
    63       74           1
    63       94           3
    64        7           3
    64       33           1
    64       47           4
    64       54           0
    64       66           1
    64       74           1
    64       80           1
    64       88           0
    64       92           1
    64       96           0
    65        5           2
    65       31           4
    65       47           3
    65       58           3
    65       62           2
    65       71           0
    65       77           4
    65       87           4
    65       88           0
    65       91           3
    66        4           3
    66        5           0
    66       25           0
    66       31           4
    66       40           0
    66       42           1
    66       61           3
    66       65           3
    66       80           4
    66       94           4
    67        5           1
    67       11           3
    67       50           4
    67       56           0
    67       58           0
    67       64           2
    67       73           2
    67       75           3
    67       83           4
    67       97           4
    68        1           2
    68        4           4
    68       35           4
    68       39           2
    68       43           1
    68       53           0
    68       63           2
    68       68           3
    68       78           3
    68       93           3
    69        3           3
    69        5           0
    69       15           4
    69       19           0
    69       21           4
    69       30           2
    69       58           0
    69       67           0
    69       78           1
    69       95           1
    70       32           0
    70       35           1
    70       37           4
    70       45           1
    70       64           2
    70       76           4
    70       79           2
    70       86           2
    70       94           3
    70       96           0
    71        2           3
    71        3           4
    71       20           2
    71       23           3
    71       34           0
    71       36           4
    71       57           0
    71       81           4
    71       86           2
    71       90           4
    72       19           3
    72       23           3
    72       35           4
    72       69           3
    72       72           3
    72       73           0
    72       80           4
    72       86           1
    72       95           0
    72       96           4
    73        3           4
    73       13           2
    73       18           1
    73       26           4
    73       30           3
    73       37           1
    73       43           0
    73       50           2
    73       63           3
    73       78           0
    74        1           1
    74       36           1
    74       39           1
    74       53           3
    74       65           0
    74       77           1
    74       80           3
    74       81           3
    74       84           4
    74       86           2
    75       11           2
    75       27           4
    75       40           2
    75       45           4
    75       64           0
    75       74           1
    75       77           1
    75       78           0
    75       93           2
    75       96           4
    76       13           4
    76       17           4
    76       32           1
    76       41           1
    76       58           0
    76       64           0
    76       80           4
    76       86           3
    76       88           0
    76       99           1
    77        8           0
    77        9           4
    77       13           1
    77       28           0
    77       52           4
    77       56           2
    77       73           4
    77       80           1
    77       84           2
    77       88           3
    78       13           2
    78       14           1
    78       59           4
    78       71           3
    78       73           1
    78       76           3
    78       79           3
    78       80           3
    78       83           4
    78       98           1
    79        6           1
    79       25           4
    79       40           2
    79       42           4
    79       46           3
    79       58           4
    79       69           0
    79       82           0
    79       86           3
    79       91           2
    80        1           2
    80        6           0
    80       33           0
    80       54           3
    80       55           3
    80       65           3
    80       69           4
    80       93           0
    80       95           3
    80       97           3
    81        4           2
    81        8           4
    81       16           1
    81       17           4
    81       37           4
    81       41           1
    81       43           4
    81       63           1
    81       64           1
    81       76           3
    82        1           2
    82       21           4
    82       43           1
    82       45           3
    82       64           0
    82       70           0
    82       81           2
    82       83           2
    82       92           0
    82       95           3
    83        1           2
    83        5           2
    83        8           4
    83       27           2
    83       51           2
    83       60           0
    83       61           3
    83       80           4
    83       82           2
    83       88           1
    84       23           1
    84       27           0
    84       35           2
    84       69           2
    84       79           0
    84       82           3
    84       88           3
    84       94           3
    84       96           2
    84       99           4
    85        5           0
    85       17           3
    85       20           2
    85       28           4
    85       40           3
    85       60           1
    85       66           3
    85       80           2
    85       83           2
    85       94           1
    86        6           1
    86       14           0
    86       19           3
    86       24           3
    86       25           4
    86       27           2
    86       29           0
    86       34           0
    86       68           3
    86       88           2
    87        1           1
    87        5           4
    87       12           0
    87       13           2
    87       43           0
    87       64           2
    87       69           0
    87       91           0
    87       93           0
    87       97           4
    88       10           3
    88       19           2
    88       25           1
    88       35           0
    88       40           2
    88       60           3
    88       64           1
    88       66           3
    88       86           3
    88       94           0
    89        3           4
    89        7           1
    89       29           1
    89       38           0
    89       40           0
    89       47           4
    89       54           3
    89       72           2
    89       77           0
    89       96           1
    90        5           3
    90       18           2
    90       28           4
    90       36           0
    90       49           1
    90       53           3
    90       60           4
    90       64           2
    90       65           4
    90       90           0
    91        1           4
    91        3           2
    91       11           1
    91       17           2
    91       49           0
    91       51           1
    91       54           1
    91       59           1
    91       86           0
    91       92           0
    92        3           0
    92        6           3
    92       19           1
    92       28           4
    92       31           3
    92       38           0
    92       39           1
    92       49           3
    92       58           3
    92       94           1
    93        2           0
    93        6           2
    93       23           3
    93       37           2
    93       44           2
    93       59           2
    93       68           2
    93       74           0
    93       92           2
    93       95           3
    94       24           2
    94       34           2
    94       46           4
    94       49           2
    94       51           0
    94       65           3
    94       66           2
    94       72           2
    94       85           4
    94       91           2
    95       10           2
    95       33           1
    95       37           4
    95       60           2
    95       67           2
    95       69           3
    95       78           1
    95       83           1
    95       91           4
    95       94           2
    96        2           2
    96       13           2
    96       31           2
    96       33           1
    96       47           3
    96       52           2
    96       68           3
    96       69           2
    96       86           1
    96       93           0
    97        9           2
    97       20           4
    97       43           3
    97       45           0
    97       54           1
    97       59           0
    97       66           4
    97       74           2
    97       83           2
    97       96           0
    98        3           4
    98       10           3
    98       34           2
    98       50           3
    98       55           4
    98       60           0
    98       84           2
    98       86           3
    98       93           4
    98      100           2
    99        4           2
    99       36           1
    99       49           3
    99       54           3
    99       62           2
    99       76           4
    99       85           2
    99       95           0
    99       96           2
    99      100           4
   100        4           2
   100        7           2
   100       12           4
   100       38           4
   100       47           1
   100       64           0
   100       65           1
   100       83           2
   100       88           2
   100      100           1
